knapPI_13_1000_1000_1
n 1000
c 3177
z 6513
time 0.00
1,234,114,1
2,39,19,0
3,1053,873,0
4,351,291,0
5,585,485,0
6,78,38,0
7,117,97,0
8,234,194,0
9,312,152,0
10,156,76,0
11,156,76,0
12,273,133,0
13,351,291,0
14,351,291,0
15,312,152,0
16,468,388,0
17,156,76,0
18,585,485,0
19,468,388,0
20,1053,873,0
21,702,582,0
22,1053,873,0
23,819,679,0
24,234,194,0
25,39,19,0
26,1170,970,0
27,234,194,0
28,234,194,0
29,351,291,0
30,936,776,0
31,468,388,0
32,351,171,0
33,351,171,0
34,156,76,0
35,351,171,0
36,390,190,0
37,468,388,0
38,156,76,0
39,312,152,0
40,390,190,0
41,468,388,0
42,702,582,0
43,234,114,0
44,1170,970,0
45,195,95,0
46,117,97,0
47,351,291,0
48,936,776,0
49,585,485,0
50,78,38,0
51,702,582,0
52,234,114,0
53,117,97,0
54,117,57,0
55,117,97,0
56,819,679,0
57,234,194,0
58,702,582,0
59,702,582,0
60,156,76,0
61,39,19,0
62,351,171,0
63,1170,970,0
64,117,97,0
65,156,76,0
66,390,190,0
67,390,190,0
68,78,38,0
69,1053,873,0
70,936,776,0
71,312,152,0
72,156,76,0
73,312,152,0
74,39,19,0
75,351,291,0
76,39,19,0
77,819,679,0
78,585,485,0
79,234,114,0
80,585,485,0
81,1170,970,0
82,468,388,0
83,195,95,0
84,351,171,0
85,312,152,0
86,273,133,0
87,1170,970,0
88,312,152,0
89,390,190,0
90,936,776,0
91,390,190,0
92,1053,873,0
93,585,485,0
94,390,190,0
95,117,97,0
96,117,57,0
97,78,38,0
98,117,97,0
99,234,114,0
100,273,133,0
101,702,582,0
102,936,776,0
103,156,76,0
104,702,582,0
105,585,485,0
106,351,291,0
107,312,152,0
108,156,76,0
109,351,291,0
110,468,388,0
111,117,97,0
112,117,57,0
113,273,133,0
114,39,19,0
115,468,388,0
116,1170,970,0
117,390,190,0
118,195,95,0
119,702,582,0
120,1053,873,0
121,39,19,0
122,1170,970,0
123,117,97,0
124,234,194,0
125,234,194,0
126,819,679,0
127,234,114,0
128,936,776,0
129,702,582,0
130,585,485,0
131,1170,970,0
132,156,76,0
133,234,114,0
134,234,194,0
135,156,76,0
136,78,38,0
137,78,38,0
138,117,97,0
139,1170,970,0
140,1170,970,0
141,195,95,0
142,234,194,0
143,117,97,0
144,1170,970,0
145,585,485,0
146,936,776,0
147,117,57,0
148,117,97,0
149,702,582,0
150,585,485,0
151,1170,970,0
152,195,95,0
153,936,776,0
154,468,388,0
155,234,114,0
156,585,485,0
157,234,194,0
158,273,133,0
159,273,133,0
160,351,291,0
161,351,291,0
162,117,57,0
163,273,133,0
164,117,57,0
165,117,57,0
166,468,388,0
167,78,38,0
168,234,114,0
169,936,776,0
170,468,388,0
171,273,133,0
172,351,171,0
173,234,194,0
174,351,171,0
175,39,19,0
176,351,171,0
177,78,38,0
178,117,57,0
179,351,291,0
180,351,291,0
181,234,194,0
182,390,190,0
183,39,19,0
184,390,190,0
185,156,76,0
186,390,190,0
187,351,171,0
188,117,97,0
189,195,95,0
190,234,114,0
191,390,190,0
192,468,388,0
193,156,76,0
194,585,485,0
195,585,485,0
196,468,388,0
197,156,76,0
198,78,38,0
199,117,97,0
200,702,582,0
201,1053,873,0
202,585,485,0
203,351,291,0
204,39,19,0
205,234,194,0
206,585,485,0
207,156,76,0
208,156,76,0
209,351,291,0
210,702,582,0
211,351,291,0
212,702,582,0
213,195,95,0
214,936,776,0
215,273,133,0
216,39,19,0
217,936,776,0
218,702,582,0
219,195,95,0
220,351,291,0
221,39,19,0
222,234,114,0
223,936,776,0
224,234,194,0
225,390,190,0
226,585,485,0
227,39,19,0
228,585,485,0
229,273,133,0
230,702,582,0
231,819,679,0
232,195,95,0
233,390,190,0
234,468,388,0
235,117,57,0
236,390,190,0
237,1170,970,0
238,1053,873,0
239,117,57,0
240,1053,873,0
241,78,38,0
242,312,152,0
243,585,485,0
244,702,582,0
245,351,291,0
246,702,582,0
247,468,388,0
248,117,57,0
249,117,57,0
250,273,133,0
251,819,679,0
252,195,95,0
253,156,76,0
254,1053,873,0
255,702,582,0
256,117,97,0
257,1170,970,0
258,312,152,0
259,234,114,0
260,312,152,0
261,351,171,0
262,1170,970,0
263,819,679,0
264,273,133,0
265,195,95,0
266,819,679,0
267,936,776,0
268,585,485,0
269,234,114,0
270,78,38,0
271,273,133,0
272,702,582,0
273,78,38,0
274,1053,873,0
275,312,152,0
276,195,95,0
277,312,152,0
278,156,76,0
279,819,679,0
280,819,679,0
281,234,194,0
282,117,97,0
283,585,485,0
284,312,152,0
285,78,38,0
286,351,171,0
287,702,582,0
288,195,95,0
289,195,95,0
290,234,114,0
291,936,776,0
292,273,133,0
293,234,194,0
294,234,194,0
295,117,97,0
296,819,679,0
297,78,38,0
298,936,776,0
299,273,133,0
300,78,38,0
301,312,152,0
302,1053,873,0
303,78,38,0
304,312,152,0
305,1053,873,0
306,351,291,0
307,234,194,0
308,1053,873,0
309,234,114,0
310,1053,873,0
311,1053,873,0
312,702,582,0
313,234,114,0
314,156,76,0
315,117,97,0
316,195,95,0
317,39,19,0
318,156,76,0
319,312,152,0
320,819,679,0
321,234,194,0
322,1053,873,0
323,819,679,0
324,702,582,0
325,468,388,0
326,312,152,0
327,351,291,0
328,936,776,0
329,234,114,0
330,702,582,0
331,390,190,0
332,468,388,0
333,78,38,0
334,390,190,0
335,390,190,0
336,39,19,0
337,273,133,0
338,156,76,0
339,195,95,0
340,117,57,0
341,312,152,0
342,390,190,0
343,312,152,0
344,1170,970,0
345,117,57,0
346,819,679,0
347,78,38,0
348,468,388,0
349,195,95,0
350,390,190,0
351,702,582,0
352,234,114,0
353,156,76,0
354,390,190,0
355,312,152,0
356,1170,970,0
357,585,485,0
358,702,582,0
359,1170,970,0
360,819,679,0
361,351,171,0
362,117,97,0
363,819,679,0
364,156,76,0
365,156,76,0
366,312,152,0
367,819,679,0
368,936,776,0
369,585,485,0
370,1053,873,0
371,312,152,0
372,117,97,0
373,234,114,0
374,273,133,0
375,78,38,0
376,702,582,0
377,702,582,0
378,468,388,0
379,39,19,0
380,39,19,0
381,312,152,0
382,819,679,0
383,351,171,0
384,156,76,0
385,936,776,0
386,1053,873,0
387,1170,970,0
388,351,171,0
389,117,97,0
390,234,194,0
391,1053,873,0
392,39,19,0
393,117,57,0
394,39,19,0
395,819,679,0
396,585,485,0
397,390,190,0
398,1170,970,0
399,1053,873,0
400,390,190,0
401,195,95,0
402,351,171,0
403,936,776,0
404,351,171,0
405,351,291,0
406,819,679,0
407,819,679,0
408,195,95,0
409,351,291,0
410,936,776,0
411,234,194,0
412,156,76,0
413,468,388,0
414,39,19,0
415,234,194,0
416,1053,873,0
417,156,76,0
418,702,582,0
419,819,679,0
420,195,95,0
421,234,194,0
422,468,388,0
423,1170,970,0
424,312,152,0
425,39,19,0
426,117,97,0
427,585,485,0
428,390,190,0
429,39,19,0
430,351,171,0
431,312,152,0
432,78,38,0
433,39,19,0
434,39,19,0
435,156,76,0
436,117,57,0
437,585,485,0
438,351,291,0
439,702,582,0
440,1053,873,0
441,195,95,0
442,117,97,0
443,312,152,0
444,351,171,0
445,819,679,0
446,156,76,0
447,117,97,0
448,351,291,0
449,117,57,0
450,312,152,0
451,351,291,0
452,468,388,0
453,234,114,0
454,585,485,0
455,117,97,0
456,351,171,0
457,156,76,0
458,195,95,0
459,195,95,0
460,819,679,0
461,117,57,0
462,273,133,0
463,1170,970,0
464,234,114,0
465,702,582,0
466,1053,873,0
467,156,76,0
468,195,95,0
469,273,133,0
470,234,194,0
471,234,114,0
472,39,19,0
473,390,190,0
474,117,57,0
475,702,582,0
476,273,133,0
477,702,582,0
478,234,194,0
479,156,76,0
480,39,19,0
481,585,485,0
482,819,679,0
483,351,291,0
484,234,194,0
485,117,57,0
486,195,95,0
487,351,171,0
488,273,133,1
489,351,171,1
490,39,19,0
491,1053,873,0
492,273,133,1
493,819,679,0
494,78,38,1
495,78,38,1
496,39,19,1
497,117,97,0
498,156,76,1
499,468,388,0
500,234,114,1
501,819,679,0
502,702,582,0
503,117,97,0
504,195,95,0
505,351,171,0
506,195,95,0
507,390,190,0
508,156,76,0
509,78,38,0
510,351,171,0
511,39,19,0
512,156,76,0
513,1053,873,0
514,39,19,1
515,78,38,1
516,312,152,1
517,195,95,1
518,390,190,1
519,234,194,0
520,1053,873,0
521,819,679,0
522,819,679,0
523,234,194,0
524,156,76,1
525,117,97,0
526,1170,970,0
527,702,582,0
528,39,19,1
529,312,152,1
530,39,19,1
531,819,679,0
532,312,152,1
533,1170,970,0
534,702,582,0
535,273,133,1
536,234,194,0
537,390,190,1
538,273,133,1
539,234,194,0
540,390,190,1
541,117,57,0
542,702,582,0
543,585,485,0
544,1170,970,0
545,351,171,1
546,351,291,0
547,819,679,0
548,936,776,0
549,78,38,1
550,351,171,1
551,273,133,1
552,390,190,1
553,468,388,0
554,156,76,1
555,273,133,0
556,234,194,0
557,585,485,0
558,351,171,0
559,78,38,0
560,702,582,0
561,117,57,0
562,234,194,0
563,234,114,0
564,1053,873,0
565,234,114,0
566,1053,873,0
567,351,291,0
568,234,194,0
569,390,190,0
570,117,57,0
571,351,171,0
572,39,19,0
573,78,38,0
574,468,388,0
575,819,679,0
576,117,97,0
577,156,76,0
578,351,171,0
579,156,76,0
580,312,152,0
581,702,582,0
582,195,95,0
583,702,582,0
584,702,582,0
585,78,38,0
586,351,291,0
587,234,114,0
588,819,679,0
589,312,152,0
590,78,38,0
591,117,57,0
592,117,97,0
593,1053,873,0
594,585,485,0
595,234,114,0
596,1053,873,0
597,585,485,0
598,351,291,0
599,585,485,0
600,351,291,0
601,351,171,0
602,585,485,0
603,936,776,0
604,195,95,0
605,39,19,0
606,195,95,0
607,117,57,0
608,156,76,0
609,117,97,0
610,351,291,0
611,273,133,0
612,702,582,0
613,351,171,0
614,585,485,0
615,1053,873,0
616,936,776,0
617,78,38,0
618,351,291,0
619,156,76,0
620,234,194,0
621,468,388,0
622,390,190,0
623,117,57,0
624,585,485,0
625,234,194,0
626,156,76,0
627,117,97,0
628,390,190,0
629,351,291,0
630,117,57,0
631,39,19,0
632,156,76,0
633,156,76,0
634,585,485,0
635,351,291,0
636,117,57,0
637,156,76,0
638,468,388,0
639,234,114,0
640,39,19,0
641,351,171,0
642,78,38,0
643,39,19,0
644,468,388,0
645,234,194,0
646,117,97,0
647,117,57,0
648,273,133,0
649,702,582,0
650,234,114,0
651,1170,970,0
652,819,679,0
653,234,194,0
654,585,485,0
655,702,582,0
656,390,190,0
657,936,776,0
658,351,171,0
659,351,291,0
660,351,171,0
661,1170,970,0
662,390,190,0
663,273,133,0
664,117,97,0
665,936,776,0
666,234,114,0
667,1170,970,0
668,39,19,0
669,468,388,0
670,273,133,0
671,234,114,0
672,390,190,0
673,351,291,0
674,351,291,0
675,195,95,0
676,351,291,0
677,585,485,0
678,78,38,0
679,1170,970,0
680,78,38,0
681,156,76,0
682,312,152,0
683,156,76,0
684,936,776,0
685,273,133,0
686,390,190,0
687,234,194,0
688,351,171,0
689,936,776,0
690,585,485,0
691,351,171,0
692,117,97,0
693,273,133,0
694,234,194,0
695,351,171,0
696,273,133,0
697,1170,970,0
698,195,95,0
699,1170,970,0
700,1053,873,0
701,351,171,0
702,1053,873,0
703,351,291,0
704,234,114,0
705,390,190,0
706,195,95,0
707,936,776,0
708,585,485,0
709,819,679,0
710,1053,873,0
711,273,133,0
712,390,190,0
713,351,291,0
714,351,291,0
715,195,95,0
716,819,679,0
717,1053,873,0
718,351,171,0
719,117,57,0
720,351,171,0
721,1170,970,0
722,1053,873,0
723,273,133,0
724,1170,970,0
725,234,194,0
726,312,152,0
727,195,95,0
728,234,194,0
729,39,19,0
730,234,194,0
731,390,190,0
732,39,19,0
733,702,582,0
734,819,679,0
735,156,76,0
736,819,679,0
737,585,485,0
738,585,485,0
739,156,76,0
740,1170,970,0
741,117,57,0
742,390,190,0
743,1053,873,0
744,117,97,0
745,351,171,0
746,1170,970,0
747,117,97,0
748,234,194,0
749,234,194,0
750,351,291,0
751,351,171,0
752,273,133,0
753,819,679,0
754,273,133,0
755,936,776,0
756,234,194,0
757,390,190,0
758,117,57,0
759,273,133,0
760,351,291,0
761,312,152,0
762,117,97,0
763,39,19,0
764,273,133,0
765,351,291,0
766,234,194,0
767,39,19,0
768,156,76,0
769,39,19,0
770,234,114,0
771,1053,873,0
772,312,152,0
773,1053,873,0
774,468,388,0
775,702,582,0
776,1170,970,0
777,819,679,0
778,390,190,0
779,78,38,0
780,936,776,0
781,234,114,0
782,273,133,0
783,39,19,0
784,312,152,0
785,117,97,0
786,117,57,0
787,585,485,0
788,585,485,0
789,156,76,0
790,117,57,0
791,117,97,0
792,1053,873,0
793,1170,970,0
794,390,190,0
795,273,133,0
796,312,152,0
797,936,776,0
798,351,171,0
799,819,679,0
800,819,679,0
801,39,19,0
802,117,97,0
803,585,485,0
804,273,133,0
805,1170,970,0
806,936,776,0
807,156,76,0
808,234,194,0
809,117,57,0
810,312,152,0
811,234,194,0
812,312,152,0
813,117,97,0
814,234,194,0
815,585,485,0
816,351,291,0
817,39,19,0
818,195,95,0
819,78,38,0
820,234,194,0
821,78,38,0
822,117,57,0
823,819,679,0
824,78,38,0
825,312,152,0
826,351,171,0
827,234,194,0
828,936,776,0
829,195,95,0
830,1170,970,0
831,1053,873,0
832,351,291,0
833,468,388,0
834,351,291,0
835,351,291,0
836,468,388,0
837,1053,873,0
838,1053,873,0
839,195,95,0
840,156,76,0
841,351,291,0
842,1170,970,0
843,351,291,0
844,390,190,0
845,195,95,0
846,1053,873,0
847,117,57,0
848,78,38,0
849,39,19,0
850,117,97,0
851,234,114,0
852,117,97,0
853,468,388,0
854,1170,970,0
855,273,133,0
856,195,95,0
857,117,57,0
858,819,679,0
859,351,291,0
860,1053,873,0
861,702,582,0
862,1053,873,0
863,117,57,0
864,195,95,0
865,1053,873,0
866,390,190,0
867,234,194,0
868,351,171,0
869,234,194,0
870,1053,873,0
871,1170,970,0
872,39,19,0
873,234,194,0
874,1170,970,0
875,1053,873,0
876,1053,873,0
877,312,152,0
878,156,76,0
879,234,194,0
880,390,190,0
881,234,194,0
882,234,194,0
883,273,133,0
884,273,133,0
885,390,190,0
886,312,152,0
887,117,57,0
888,585,485,0
889,819,679,0
890,468,388,0
891,585,485,0
892,819,679,0
893,351,291,0
894,1053,873,0
895,195,95,0
896,351,171,0
897,234,114,0
898,936,776,0
899,39,19,0
900,312,152,0
901,351,171,0
902,702,582,0
903,117,57,0
904,195,95,0
905,156,76,0
906,312,152,0
907,585,485,0
908,936,776,0
909,468,388,0
910,1053,873,0
911,234,114,0
912,468,388,0
913,117,97,0
914,1170,970,0
915,936,776,0
916,1170,970,0
917,234,194,0
918,234,114,0
919,234,114,0
920,39,19,0
921,117,57,0
922,234,114,0
923,273,133,0
924,936,776,0
925,39,19,0
926,819,679,0
927,351,291,0
928,1170,970,0
929,312,152,0
930,195,95,0
931,585,485,0
932,351,291,0
933,234,194,0
934,351,171,0
935,1053,873,0
936,39,19,0
937,195,95,0
938,78,38,0
939,585,485,0
940,117,97,0
941,1053,873,0
942,819,679,0
943,1053,873,0
944,819,679,0
945,351,291,0
946,1053,873,0
947,1053,873,0
948,312,152,0
949,936,776,0
950,1053,873,0
951,468,388,0
952,312,152,0
953,351,171,0
954,312,152,0
955,117,97,0
956,702,582,0
957,234,194,0
958,702,582,0
959,1170,970,0
960,468,388,0
961,117,97,0
962,351,171,0
963,78,38,0
964,936,776,0
965,117,57,0
966,39,19,0
967,195,95,0
968,936,776,0
969,78,38,0
970,351,171,0
971,936,776,0
972,273,133,0
973,936,776,0
974,585,485,0
975,702,582,0
976,234,114,0
977,351,291,0
978,468,388,0
979,351,291,0
980,234,114,0
981,468,388,0
982,585,485,0
983,351,171,0
984,234,194,0
985,936,776,0
986,78,38,0
987,819,679,0
988,78,38,0
989,117,97,0
990,195,95,0
991,936,776,0
992,39,19,0
993,234,114,0
994,351,291,0
995,156,76,0
996,1053,873,0
997,390,190,0
998,117,97,0
999,156,76,0
1000,273,133,0
